certificates/rado_a6_c100_N17.drat
-17 0
15 0
-5 0
3 0
7 0
-13 0
-16 0
11 0
9 0
0
